
  26    0


   0  13 2 3 4 5 6 7 8 10 11 22 23 24 25 
   5   6 21 17 15 14 13 12 
   2   4 20 14 13 12 
  10   3 13 12 9 
   2   3 19 16 12 
   8   3 18 14 12 
   4   2 17 14 
   6   2 16 12 
   3   1 15 
   2   1 13 
   5   1 12 
   3   1 26
   7   1 26
   8   1 26
   1   1 26
  10   1 26
   8   1 26
   5   1 26
   4   1 26
   2   1 26
   7   1 26
   2   1 26
   7   1 26
   3   1 26
   1   1 26
   0   0 
